H4 C1 
1.0
1.0000000000000000e+01 0.0000000000000000e+00 0.0000000000000000e+00 
0.0000000000000000e+00 1.0000000000000000e+01 0.0000000000000000e+00 
0.0000000000000000e+00 0.0000000000000000e+00 1.0000000000000000e+01 
H C 
4 1 
cartesian
   5.0791500000    4.0387500000    3.5282900000
   4.1228600000    5.0341300000    4.6079700000
   5.8706400000    5.4951200000    4.3028500000
   5.4983300000    4.1020600000    5.2454300000
   5.1266900000    4.7119000000    4.3778700000
