H4 C1 
1.0
1.0000000000000000e+01 0.0000000000000000e+00 0.0000000000000000e+00 
0.0000000000000000e+00 1.0000000000000000e+01 0.0000000000000000e+00 
0.0000000000000000e+00 0.0000000000000000e+00 1.0000000000000000e+01 
H C 
4 1 
cartesian
   4.4477800000    5.0717800000    5.3637200000
   4.9765700000    5.2723700000    3.7489700000
   4.3227000000    3.7877000000    4.1684200000
   5.9573500000    4.2150600000    4.8190600000
   4.9782800000    4.5660000000    4.5496000000
