H4 C1 
1.0
1.0000000000000000e+01 0.0000000000000000e+00 0.0000000000000000e+00 
0.0000000000000000e+00 1.0000000000000000e+01 0.0000000000000000e+00 
0.0000000000000000e+00 0.0000000000000000e+00 1.0000000000000000e+01 
H C 
4 1 
cartesian
   4.9970700000    4.9614200000    3.4201200000
   3.5638200000    4.8066400000    4.4709900000
   5.0576500000    5.5295300000    5.1847800000
   5.0171100000    3.7154200000    4.6646000000
   4.6707200000    4.7905300000    4.4451900000
