H4 C1 
1.0
1.0000000000000000e+01 0.0000000000000000e+00 0.0000000000000000e+00 
0.0000000000000000e+00 1.0000000000000000e+01 0.0000000000000000e+00 
0.0000000000000000e+00 0.0000000000000000e+00 1.0000000000000000e+01 
H C 
4 1 
cartesian
   4.9930900000    5.0967400000    3.4476400000
   3.5656600000    4.7918500000    4.4881400000
   5.0447500000    5.4589900000    5.2507200000
   5.0223000000    3.7026200000    4.5925700000
   4.6715400000    4.7874400000    4.4419700000
