H4 C1 
1.0
1.0000000000000000e+01 0.0000000000000000e+00 0.0000000000000000e+00 
0.0000000000000000e+00 1.0000000000000000e+01 0.0000000000000000e+00 
0.0000000000000000e+00 0.0000000000000000e+00 1.0000000000000000e+01 
H C 
4 1 
cartesian
   5.3877721600    4.1556997300    3.5140150900
   4.0102902500    4.9501357600    4.3964381800
   5.6034794200    5.6780270000    4.3975392400
   5.3174256000    4.1624574300    5.3436419800
   5.1012623900    4.7172899700    4.4216535100
