H4 C1 
1.0
1.0000000000000000e+01 0.0000000000000000e+00 0.0000000000000000e+00 
0.0000000000000000e+00 1.0000000000000000e+01 0.0000000000000000e+00 
0.0000000000000000e+00 0.0000000000000000e+00 1.0000000000000000e+01 
H C 
4 1 
cartesian
   5.3773651200    4.0049207100    3.4674961600
   3.9771156000    4.7383536400    4.2927532700
   5.6062655500    5.5222815400    4.3574497100
   5.3494740700    4.0241907100    5.2872924200
   5.0971820400    4.5631718900    4.3657396100
