H4 C1 
1.0
1.0000000000000000e+01 0.0000000000000000e+00 0.0000000000000000e+00 
0.0000000000000000e+00 1.0000000000000000e+01 0.0000000000000000e+00 
0.0000000000000000e+00 0.0000000000000000e+00 1.0000000000000000e+01 
H C 
4 1 
cartesian
   5.3333283200    4.1014396000    3.5951964000
   3.9446578900    4.8328371200    4.3697791900
   5.5873573200    5.6156398600    4.4371756800
   5.3127960000    4.1548572600    5.3447869000
   5.0164050400    4.6862316300    4.4472131000
