H4 C1 
1.0
1.0000000000000000e+01 0.0000000000000000e+00 0.0000000000000000e+00 
0.0000000000000000e+00 1.0000000000000000e+01 0.0000000000000000e+00 
0.0000000000000000e+00 0.0000000000000000e+00 1.0000000000000000e+01 
H C 
4 1 
cartesian
   5.3663074900    4.1526639700    3.5655183800
   3.9889240500    4.9709289400    4.4443799700
   5.6153967700    5.7215667700    4.4816249300
   5.2258286000    4.1996867500    5.3775336800
   5.0727251400    4.7527612100    4.4594906500
