H4 C1 
1.0
1.0000000000000000e+01 0.0000000000000000e+00 0.0000000000000000e+00 
0.0000000000000000e+00 1.0000000000000000e+01 0.0000000000000000e+00 
0.0000000000000000e+00 0.0000000000000000e+00 1.0000000000000000e+01 
H C 
4 1 
cartesian
   5.2036920900    3.8954955800    3.4521652600
   3.8609136700    4.6570175100    4.3086391900
   5.3896058800    5.4717579900    4.3825208600
   5.1158597000    3.9009034900    5.2956828100
   4.9291546300    4.4575232800    4.3694031300
