H4 C1 
1.0
1.0000000000000000e+01 0.0000000000000000e+00 0.0000000000000000e+00 
0.0000000000000000e+00 1.0000000000000000e+01 0.0000000000000000e+00 
0.0000000000000000e+00 0.0000000000000000e+00 1.0000000000000000e+01 
H C 
4 1 
cartesian
   5.3195858700    4.1073844600    3.5396961000
   3.9387000400    4.8909480100    4.3801208400
   5.5413864300    5.6523275200    4.4250944600
   5.2636633800    4.1241953600    5.3785130500
   5.0260448300    4.6803597900    4.4491956900
