H4 C1 
1.0
1.0000000000000000e+01 0.0000000000000000e+00 0.0000000000000000e+00 
0.0000000000000000e+00 1.0000000000000000e+01 0.0000000000000000e+00 
0.0000000000000000e+00 0.0000000000000000e+00 1.0000000000000000e+01 
H C 
4 1 
cartesian
   5.2894935900    4.1618620600    3.5499384000
   3.8833892000    4.9250584800    4.3089728400
   5.5629949000    5.6823611800    4.3796757700
   5.2668156000    4.2137776300    5.3244483700
   4.9781467100    4.7598017100    4.3923340700
