H4 C1 
1.0
1.0000000000000000e+01 0.0000000000000000e+00 0.0000000000000000e+00 
0.0000000000000000e+00 1.0000000000000000e+01 0.0000000000000000e+00 
0.0000000000000000e+00 0.0000000000000000e+00 1.0000000000000000e+01 
H C 
4 1 
cartesian
   5.4718584800    3.9846432500    3.5587969300
   4.0860815900    4.7727738100    4.3332046000
   5.7339499600    5.5343025100    4.4488962200
   5.4456950700    3.9946159700    5.3521967900
   5.1878926700    4.5540870000    4.4404383200
