H4 C1 
1.0
1.0000000000000000e+01 0.0000000000000000e+00 0.0000000000000000e+00 
0.0000000000000000e+00 1.0000000000000000e+01 0.0000000000000000e+00 
0.0000000000000000e+00 0.0000000000000000e+00 1.0000000000000000e+01 
H C 
4 1 
cartesian
   5.6149000000    3.9058600000    3.6425100000
   4.1056400000    4.1944600000    4.4218600000
   5.0284400000    5.5898000000    3.9064600000
   5.5751500000    4.6513400000    5.3304100000
   5.0959500000    4.5589200000    4.3743400000
