H4 C1 
1.0
1.0000000000000000e+01 0.0000000000000000e+00 0.0000000000000000e+00 
0.0000000000000000e+00 1.0000000000000000e+01 0.0000000000000000e+00 
0.0000000000000000e+00 0.0000000000000000e+00 1.0000000000000000e+01 
H C 
4 1 
cartesian
   5.3110975700    4.1091833500    3.5667557800
   3.9669081700    4.9039031600    4.4320517800
   5.5235517700    5.6574769500    4.4502358000
   5.2055336400    4.1183834200    5.3534261600
   5.0307725000    4.6791882700    4.4425830400
