H4 C1 
1.0
1.0000000000000000e+01 0.0000000000000000e+00 0.0000000000000000e+00 
0.0000000000000000e+00 1.0000000000000000e+01 0.0000000000000000e+00 
0.0000000000000000e+00 0.0000000000000000e+00 1.0000000000000000e+01 
H C 
4 1 
cartesian
   4.9055200000    5.7571100000    4.3003300000
   5.2554700000    4.6051200000    5.6050000000
   6.0132000000    4.4832500000    4.0201600000
   4.2924200000    4.1002200000    4.1717800000
   5.0785100000    4.7683300000    4.5495500000
