H4 C1 
1.0
1.0000000000000000e+01 0.0000000000000000e+00 0.0000000000000000e+00 
0.0000000000000000e+00 1.0000000000000000e+01 0.0000000000000000e+00 
0.0000000000000000e+00 0.0000000000000000e+00 1.0000000000000000e+01 
H C 
4 1 
cartesian
   5.4418873300    3.9582146900    3.5363027200
   3.9998190900    4.7126392400    4.3448219800
   5.6725395500    5.5103543900    4.3818237200
   5.3799822600    4.0067964800    5.3003747400
   5.0981446100    4.5724307800    4.3909698700
