H4 C1 
1.0
1.0000000000000000e+01 0.0000000000000000e+00 0.0000000000000000e+00 
0.0000000000000000e+00 1.0000000000000000e+01 0.0000000000000000e+00 
0.0000000000000000e+00 0.0000000000000000e+00 1.0000000000000000e+01 
H C 
4 1 
cartesian
   5.4161400000    3.7499500000    4.4208500000
   4.1605500000    4.9136500000    3.9141700000
   5.9258100000    5.3839400000    4.0672200000
   4.9399500000    5.0911100000    5.5045300000
   5.1196500000    4.7436600000    4.4655500000
