H4 C1 
1.0
1.0000000000000000e+01 0.0000000000000000e+00 0.0000000000000000e+00 
0.0000000000000000e+00 1.0000000000000000e+01 0.0000000000000000e+00 
0.0000000000000000e+00 0.0000000000000000e+00 1.0000000000000000e+01 
H C 
4 1 
cartesian
   5.3376768700    4.1988355100    3.4409454300
   3.9377160800    4.9351271700    4.3214670400
   5.5651075500    5.7253700800    4.3711997300
   5.2841095700    4.2012078000    5.3240619300
   5.0473475400    4.7432689200    4.3733388700
