H4 C1 
1.0
1.0000000000000000e+01 0.0000000000000000e+00 0.0000000000000000e+00 
0.0000000000000000e+00 1.0000000000000000e+01 0.0000000000000000e+00 
0.0000000000000000e+00 0.0000000000000000e+00 1.0000000000000000e+01 
H C 
4 1 
cartesian
   5.4794909800    4.0004322500    3.5573873700
   4.1276780900    4.7876192300    4.4227724700
   5.7016221100    5.5254276400    4.4515560200
   5.3426396800    3.9849344300    5.3411905700
   5.1951972000    4.5530764300    4.4337164000
