H4 C1 
1.0
1.0000000000000000e+01 0.0000000000000000e+00 0.0000000000000000e+00 
0.0000000000000000e+00 1.0000000000000000e+01 0.0000000000000000e+00 
0.0000000000000000e+00 0.0000000000000000e+00 1.0000000000000000e+01 
H C 
4 1 
cartesian
   4.1972600000    4.1717600000    3.6480500000
   4.0654900000    5.6127700000    4.6968200000
   5.6888200000    5.1294900000    4.1330700000
   4.8055600000    4.1227800000    5.3440400000
   4.6606000000    4.7885500000    4.4384000000
