 H  C 
 1.0000000000000000
    10.0000000000000000    0.0000000000000000    0.0000000000000000
     0.0000000000000000   10.0000000000000000    0.0000000000000000
     0.0000000000000000    0.0000000000000000   10.0000000000000000
   H   C
   4   1
Cartesian
  5.4743738234579595  4.1141194824559992  3.6148306891960704
  3.9885469942322289  4.9015205255108745  4.4455916051119351
  5.6559184550381341  5.7325908138197565  4.4581130073825816
  5.3975935537791289  4.2120590310417647  5.3910639370541453
  5.1134831644292671  4.7585203038936736  4.4653184072301064
