H4 C1 
1.0
1.0000000000000000e+01 0.0000000000000000e+00 0.0000000000000000e+00 
0.0000000000000000e+00 1.0000000000000000e+01 0.0000000000000000e+00 
0.0000000000000000e+00 0.0000000000000000e+00 1.0000000000000000e+01 
H C 
4 1 
cartesian
   5.4437333300    4.1808064500    3.6375379800
   4.0802666500    4.9993131300    4.5369530600
   5.6917253400    5.7678902800    4.5689378900
   5.3539722300    4.1861236700    5.4701884700
   5.1651039300    4.7765790500    4.5359341100
