H4 C1 
1.0
1.0000000000000000e+01 0.0000000000000000e+00 0.0000000000000000e+00 
0.0000000000000000e+00 1.0000000000000000e+01 0.0000000000000000e+00 
0.0000000000000000e+00 0.0000000000000000e+00 1.0000000000000000e+01 
H C 
4 1 
cartesian
   5.1887711000    4.0681402300    3.6412891500
   3.8104256400    4.8706315400    4.5336739400
   5.3926818500    5.6135123600    4.5554062200
   5.0862929100    4.1140329800    5.4785731200
   4.8959928800    4.6719113200    4.5373728000
