H4 C1 
1.0
1.0000000000000000e+01 0.0000000000000000e+00 0.0000000000000000e+00 
0.0000000000000000e+00 1.0000000000000000e+01 0.0000000000000000e+00 
0.0000000000000000e+00 0.0000000000000000e+00 1.0000000000000000e+01 
H C 
4 1 
cartesian
   4.7933000000    5.7310200000    4.9123600000
   3.5609800000    4.6134000000    4.2833600000
   4.9855800000    3.9956000000    5.1624700000
   5.2051600000    4.7854200000    3.4702900000
   4.6782700000    4.7811700000    4.4378600000
