H4 C1 
1.0
1.0000000000000000e+01 0.0000000000000000e+00 0.0000000000000000e+00 
0.0000000000000000e+00 1.0000000000000000e+01 0.0000000000000000e+00 
0.0000000000000000e+00 0.0000000000000000e+00 1.0000000000000000e+01 
H C 
4 1 
cartesian
   5.4191107500    4.1183602000    3.4848148300
   4.0406131900    4.9190992600    4.3148939600
   5.6463003300    5.6763921500    4.3636664400
   5.3554867400    4.1460757400    5.3274307800
   5.1358359900    4.6961652400    4.3942012300
