 H  C 
 1.0000000000000000
    10.0000000000000000    0.0000000000000000    0.0000000000000000
     0.0000000000000000   10.0000000000000000    0.0000000000000000
     0.0000000000000000    0.0000000000000000   10.0000000000000000
   H   C
   4   1
Cartesian
  5.4922443594477830  4.1388247494908263  3.6780402628664906
  4.0496401481851620  4.9249569800644082  4.5216093290766466
  5.7131410153494704  5.7692619323746888  4.5274714372369020
  5.4344882594475745  4.2186644990501359  5.4790776146123408
  5.1551255935765044  4.7834032367114885  4.5364632751990639
