H4 C1 
1.0
1.0000000000000000e+01 0.0000000000000000e+00 0.0000000000000000e+00 
0.0000000000000000e+00 1.0000000000000000e+01 0.0000000000000000e+00 
0.0000000000000000e+00 0.0000000000000000e+00 1.0000000000000000e+01 
H C 
4 1 
cartesian
   5.9282400000    4.8642700000    3.7034500000
   5.4610200000    4.5185200000    5.4526000000
   4.7100400000    3.6009500000    4.0719800000
   4.2714300000    5.2604600000    4.2122100000
   5.0920700000    4.5670200000    4.3627600000
