H4 C1 
1.0
1.0000000000000000e+01 0.0000000000000000e+00 0.0000000000000000e+00 
0.0000000000000000e+00 1.0000000000000000e+01 0.0000000000000000e+00 
0.0000000000000000e+00 0.0000000000000000e+00 1.0000000000000000e+01 
H C 
4 1 
cartesian
   5.2661600000    4.8517200000    3.4092100000
   4.0320400000    4.4967300000    4.7245200000
   5.3568400000    5.6674700000    5.0242500000
   5.7671500000    3.9364200000    4.8128900000
   5.1213400000    4.7591800000    4.4602100000
