H4 C1 
1.0
1.0000000000000000e+01 0.0000000000000000e+00 0.0000000000000000e+00 
0.0000000000000000e+00 1.0000000000000000e+01 0.0000000000000000e+00 
0.0000000000000000e+00 0.0000000000000000e+00 1.0000000000000000e+01 
H C 
4 1 
cartesian
   5.2812030600    4.1826088400    3.5088331800
   3.9003281100    5.0112665300    4.3347809100
   5.4975745400    5.7138208000    4.3673225400
   5.2003442100    4.1898614300    5.3426611900
   4.9884282600    4.7501895700    4.3931493200
