H4 C1 
1.0
1.0000000000000000e+01 0.0000000000000000e+00 0.0000000000000000e+00 
0.0000000000000000e+00 1.0000000000000000e+01 0.0000000000000000e+00 
0.0000000000000000e+00 0.0000000000000000e+00 1.0000000000000000e+01 
H C 
4 1 
cartesian
   4.8615400000    4.5407900000    3.4360600000
   4.0051600000    5.2865500000    4.7869800000
   5.7853000000    5.1743400000    4.8220800000
   4.8287700000    3.6601700000    4.9639300000
   4.8957500000    4.6724800000    4.5538400000
