H4 C1 
1.0
1.0000000000000000e+01 0.0000000000000000e+00 0.0000000000000000e+00 
0.0000000000000000e+00 1.0000000000000000e+01 0.0000000000000000e+00 
0.0000000000000000e+00 0.0000000000000000e+00 1.0000000000000000e+01 
H C 
4 1 
cartesian
   4.5815400000    4.3283900000    3.5096100000
   4.4351300000    5.4032300000    4.8649700000
   5.9906500000    5.2651300000    3.9913300000
   5.5143600000    3.8632900000    5.0812600000
   5.1308000000    4.6960700000    4.3976500000
