H4 C1 
1.0
1.0000000000000000e+01 0.0000000000000000e+00 0.0000000000000000e+00 
0.0000000000000000e+00 1.0000000000000000e+01 0.0000000000000000e+00 
0.0000000000000000e+00 0.0000000000000000e+00 1.0000000000000000e+01 
H C 
4 1 
cartesian
   5.4543400000    3.9839800000    3.5341400000
   4.1462200000    4.8511900000    4.3033100000
   5.8865100000    5.3763600000    4.4653000000
   5.2860900000    3.8670600000    5.3688300000
   5.1848600000    4.5714600000    4.4421900000
