H4 C1 
1.0
1.0000000000000000e+01 0.0000000000000000e+00 0.0000000000000000e+00 
0.0000000000000000e+00 1.0000000000000000e+01 0.0000000000000000e+00 
0.0000000000000000e+00 0.0000000000000000e+00 1.0000000000000000e+01 
H C 
4 1 
cartesian
   3.8691200000    5.0669200000    3.7825100000
   5.1397100000    5.7374100000    4.8125700000
   5.4016500000    4.1990800000    3.8832900000
   4.2833500000    4.2655300000    5.3150500000
   4.6658700000    4.7692100000    4.4407800000
