H4 C1 
1.0
1.0000000000000000e+01 0.0000000000000000e+00 0.0000000000000000e+00 
0.0000000000000000e+00 1.0000000000000000e+01 0.0000000000000000e+00 
0.0000000000000000e+00 0.0000000000000000e+00 1.0000000000000000e+01 
H C 
4 1 
cartesian
   5.4120300900    4.1086015300    3.5923036600
   4.0038944600    4.8475847200    4.3751566600
   5.6424438900    5.6366657700    4.4340139100
   5.3670578400    4.1766715900    5.3450527500
   5.0687083100    4.7177774300    4.4348730000
