H4 C1 
1.0
1.0000000000000000e+01 0.0000000000000000e+00 0.0000000000000000e+00 
0.0000000000000000e+00 1.0000000000000000e+01 0.0000000000000000e+00 
0.0000000000000000e+00 0.0000000000000000e+00 1.0000000000000000e+01 
H C 
4 1 
cartesian
   5.2482389800    3.9921328700    3.6648231300
   3.9073869700    4.7709107400    4.4830765300
   5.4571684600    5.5738675000    4.5271269700
   5.1668525700    3.9923233200    5.4608017300
   4.9720996300    4.5672482800    4.5468809300
