H4 C1 
1.0
1.0000000000000000e+01 0.0000000000000000e+00 0.0000000000000000e+00 
0.0000000000000000e+00 1.0000000000000000e+01 0.0000000000000000e+00 
0.0000000000000000e+00 0.0000000000000000e+00 1.0000000000000000e+01 
H C 
4 1 
cartesian
   5.4720666900    3.9788644800    3.5358617500
   4.0975719500    4.7903309700    4.3482853100
   5.7077319400    5.5376901700    4.4455351100
   5.4208290200    3.9826520100    5.3642496200
   5.1912139400    4.5538169900    4.4403624900
