H4 C1 
1.0
1.0000000000000000e+01 0.0000000000000000e+00 0.0000000000000000e+00 
0.0000000000000000e+00 1.0000000000000000e+01 0.0000000000000000e+00 
0.0000000000000000e+00 0.0000000000000000e+00 1.0000000000000000e+01 
H C 
4 1 
cartesian
   5.4107775800    4.1227613700    3.4930019900
   4.0400249300    4.8681164200    4.2953346200
   5.6763214000    5.6339140800    4.3490393900
   5.3917942300    4.1555820800    5.2708726200
   5.1086059400    4.6901993400    4.3678651900
