H4 C1 
1.0
1.0000000000000000e+01 0.0000000000000000e+00 0.0000000000000000e+00 
0.0000000000000000e+00 1.0000000000000000e+01 0.0000000000000000e+00 
0.0000000000000000e+00 0.0000000000000000e+00 1.0000000000000000e+01 
H C 
4 1 
cartesian
   6.1241900000    4.9248500000    4.9993200000
   4.8383600000    3.6866000000    4.5496400000
   5.0980100000    5.1590500000    3.5316300000
   4.3636300000    5.3695500000    5.1406000000
   5.0820500000    4.7521400000    4.5392300000
