H4 C1 
1.0
1.0000000000000000e+01 0.0000000000000000e+00 0.0000000000000000e+00 
0.0000000000000000e+00 1.0000000000000000e+01 0.0000000000000000e+00 
0.0000000000000000e+00 0.0000000000000000e+00 1.0000000000000000e+01 
H C 
4 1 
cartesian
   5.0134839800    4.1885260800    3.6127848900
   3.5523850800    4.9189376700    4.3734544600
   5.2094430300    5.7239544300    4.4401650600
   4.9539841600    4.2416431400    5.3546895700
   4.6629190000    4.7855257500    4.4418150900
