H4 C1 
1.0
1.0000000000000000e+01 0.0000000000000000e+00 0.0000000000000000e+00 
0.0000000000000000e+00 1.0000000000000000e+01 0.0000000000000000e+00 
0.0000000000000000e+00 0.0000000000000000e+00 1.0000000000000000e+01 
H C 
4 1 
cartesian
   5.4596700000    4.3991000000    3.5905500000
   4.0887500000    4.7762600000    4.5511600000
   5.5896100000    5.7321400000    4.7154200000
   5.4969000000    4.0685800000    5.2437000000
   5.1596700000    4.7897100000    4.5452400000
