H4 C1 
1.0
1.0000000000000000e+01 0.0000000000000000e+00 0.0000000000000000e+00 
0.0000000000000000e+00 1.0000000000000000e+01 0.0000000000000000e+00 
0.0000000000000000e+00 0.0000000000000000e+00 1.0000000000000000e+01 
H C 
4 1 
cartesian
   5.3914429000    4.1259148700    3.5212931800
   3.9268147000    4.8869415600    4.3274097800
   5.5837995600    5.7132867900    4.3610904900
   5.3486007800    4.1756661300    5.2722195600
   5.0367625500    4.7566215900    4.3712441000
