H4 C1 
1.0
1.0000000000000000e+01 0.0000000000000000e+00 0.0000000000000000e+00 
0.0000000000000000e+00 1.0000000000000000e+01 0.0000000000000000e+00 
0.0000000000000000e+00 0.0000000000000000e+00 1.0000000000000000e+01 
H C 
4 1 
cartesian
   5.4897700000    4.3628500000    3.3568700000
   4.0881400000    4.9600100000    4.2758300000
   5.6909600000    5.5943400000    4.7370400000
   5.1398700000    3.9447300000    5.2004400000
   5.1402100000    4.6959100000    4.3874000000
