H4 C1 
1.0
1.0000000000000000e+01 0.0000000000000000e+00 0.0000000000000000e+00 
0.0000000000000000e+00 1.0000000000000000e+01 0.0000000000000000e+00 
0.0000000000000000e+00 0.0000000000000000e+00 1.0000000000000000e+01 
H C 
4 1 
cartesian
   5.0716100000    5.1827900000    3.5541800000
   4.4080100000    4.0713300000    4.7525900000
   5.0267500000    5.5512400000    5.2738000000
   6.1088500000    4.3107700000    4.7381900000
   5.1613200000    4.7780300000    4.5270800000
