H4 C1 
1.0
1.0000000000000000e+01 0.0000000000000000e+00 0.0000000000000000e+00 
0.0000000000000000e+00 1.0000000000000000e+01 0.0000000000000000e+00 
0.0000000000000000e+00 0.0000000000000000e+00 1.0000000000000000e+01 
H C 
4 1 
cartesian
   5.4877896200    3.9944856000    3.5545649600
   4.0924871400    4.7810243300    4.4313788900
   5.7359778100    5.5308479900    4.4643567500
   5.3445389300    3.9753224700    5.3507102800
   5.1944340800    4.5544853600    4.4313458700
