H4 C1 
1.0
1.0000000000000000e+01 0.0000000000000000e+00 0.0000000000000000e+00 
0.0000000000000000e+00 1.0000000000000000e+01 0.0000000000000000e+00 
0.0000000000000000e+00 0.0000000000000000e+00 1.0000000000000000e+01 
H C 
4 1 
cartesian
   4.2526900000    5.6996200000    4.0576400000
   5.7154500000    4.8248700000    4.6242500000
   4.4759600000    3.9262900000    3.7731100000
   4.1500600000    4.6029900000    5.4308100000
   4.6741800000    4.7871400000    4.4330800000
