H4 C1 
1.0
1.0000000000000000e+01 0.0000000000000000e+00 0.0000000000000000e+00 
0.0000000000000000e+00 1.0000000000000000e+01 0.0000000000000000e+00 
0.0000000000000000e+00 0.0000000000000000e+00 1.0000000000000000e+01 
H C 
4 1 
cartesian
   5.3944711400    3.9957618600    3.4928881400
   4.0538601600    4.7977327000    4.3705607100
   5.5987476300    5.5317858300    4.3998828800
   5.2878472100    3.9957008900    5.3065293500
   5.1117838300    4.5611526700    4.3905394700
