H4 C1 
1.0
1.0000000000000000e+01 0.0000000000000000e+00 0.0000000000000000e+00 
0.0000000000000000e+00 1.0000000000000000e+01 0.0000000000000000e+00 
0.0000000000000000e+00 0.0000000000000000e+00 1.0000000000000000e+01 
H C 
4 1 
cartesian
   5.4464846000    4.1345928900    3.4822470000
   4.1140830200    4.9334535600    4.3650578000
   5.6690886300    5.6786150100    4.3806852800
   5.3635651700    4.1214727900    5.2664479600
   5.1752491700    4.6934096000    4.3632800400
