H4 C1 
1.0
1.0000000000000000e+01 0.0000000000000000e+00 0.0000000000000000e+00 
0.0000000000000000e+00 1.0000000000000000e+01 0.0000000000000000e+00 
0.0000000000000000e+00 0.0000000000000000e+00 1.0000000000000000e+01 
H C 
4 1 
cartesian
   5.4795600000    3.7775200000    4.1948600000
   4.0798900000    4.9657200000    4.0517300000
   5.7853100000    5.5965300000    4.1380400000
   5.0717600000    4.7459000000    5.5954900000
   5.1218100000    4.7480700000    4.4594400000
