H4 C1 
1.0
1.0000000000000000e+01 0.0000000000000000e+00 0.0000000000000000e+00 
0.0000000000000000e+00 1.0000000000000000e+01 0.0000000000000000e+00 
0.0000000000000000e+00 0.0000000000000000e+00 1.0000000000000000e+01 
H C 
4 1 
cartesian
   4.9646900000    4.4911900000    3.4589800000
   4.1727800000    5.2319300000    4.9375800000
   5.9500200000    5.4127400000    4.7315100000
   5.2737000000    3.8158800000    5.1447400000
   5.0873000000    4.7678300000    4.5349200000
