H4 C1 
1.0
1.0000000000000000e+01 0.0000000000000000e+00 0.0000000000000000e+00 
0.0000000000000000e+00 1.0000000000000000e+01 0.0000000000000000e+00 
0.0000000000000000e+00 0.0000000000000000e+00 1.0000000000000000e+01 
H C 
4 1 
cartesian
   5.4373226500    4.2082241800    3.6631482500
   4.1107990600    5.0026989100    4.5349887300
   5.6608326500    5.7487621900    4.5503830800
   5.3450074900    4.2094313300    5.4430511900
   5.1664314700    4.7736255700    4.5377679700
