H4 C1 
1.0
1.0000000000000000e+01 0.0000000000000000e+00 0.0000000000000000e+00 
0.0000000000000000e+00 1.0000000000000000e+01 0.0000000000000000e+00 
0.0000000000000000e+00 0.0000000000000000e+00 1.0000000000000000e+01 
H C 
4 1 
cartesian
   4.3464300000    5.3853600000    5.0076800000
   4.5694700000    3.8098100000    4.1078000000
   5.8892400000    4.5001800000    5.2051600000
   5.5610500000    5.2558900000    3.5892900000
   5.1260000000    4.7592700000    4.4652900000
