H4 C1 
1.0
1.0000000000000000e+01 0.0000000000000000e+00 0.0000000000000000e+00 
0.0000000000000000e+00 1.0000000000000000e+01 0.0000000000000000e+00 
0.0000000000000000e+00 0.0000000000000000e+00 1.0000000000000000e+01 
H C 
4 1 
cartesian
   5.8789100000    4.6797000000    3.6536300000
   4.5344700000    3.8172800000    4.3827600000
   4.3630100000    5.5446900000    4.0340400000
   5.4925100000    4.9241600000    5.4337600000
   5.0352600000    4.7512800000    4.3693800000
