H4 C1 
1.0
1.0000000000000000e+01 0.0000000000000000e+00 0.0000000000000000e+00 
0.0000000000000000e+00 1.0000000000000000e+01 0.0000000000000000e+00 
0.0000000000000000e+00 0.0000000000000000e+00 1.0000000000000000e+01 
H C 
4 1 
cartesian
   4.9751700000    5.5041900000    5.1409400000
   4.9134800000    4.8543500000    3.5068500000
   3.9709400000    4.0570500000    4.8047900000
   5.8417800000    3.9219400000    4.6971000000
   4.9785300000    4.5667900000    4.5454700000
