 H  C 
 1.0000000000000000
    10.0000000000000000    0.0000000000000000    0.0000000000000000
     0.0000000000000000   10.0000000000000000    0.0000000000000000
     0.0000000000000000    0.0000000000000000   10.0000000000000000
   H   C
   4   1
Cartesian
  5.4061071570038601  4.0893858403826400  3.5782907278315479
  4.0165780229506769  4.8695852643248729  4.3993359835520094
  5.6337831411746730  5.7024753419277383  4.4049348197554030
  5.3717015464631315  4.1733309788135511  5.3348528847530883
  5.0920030358403672  4.7266767681368487  4.4162334288820091
