H4 C1 
1.0
1.0000000000000000e+01 0.0000000000000000e+00 0.0000000000000000e+00 
0.0000000000000000e+00 1.0000000000000000e+01 0.0000000000000000e+00 
0.0000000000000000e+00 0.0000000000000000e+00 1.0000000000000000e+01 
H C 
4 1 
cartesian
   5.3894000000    3.9121800000    3.5078100000
   4.0267500000    4.6726800000    4.3297600000
   5.6197500000    5.5344500000    4.3659200000
   5.4149500000    3.9997200000    5.2818300000
   5.0853900000    4.5774500000    4.3590000000
