H4 C1 
1.0
1.0000000000000000e+01 0.0000000000000000e+00 0.0000000000000000e+00 
0.0000000000000000e+00 1.0000000000000000e+01 0.0000000000000000e+00 
0.0000000000000000e+00 0.0000000000000000e+00 1.0000000000000000e+01 
H C 
4 1 
cartesian
   5.4564005400    4.1613622400    3.4766480700
   4.0849777900    4.8905928100    4.3091504200
   5.7298009300    5.6655521900    4.3524107200
   5.4390965100    4.1542603100    5.2914743100
   5.1654185700    4.6930962900    4.3686873800
