H4 C1 
1.0
1.0000000000000000e+01 0.0000000000000000e+00 0.0000000000000000e+00 
0.0000000000000000e+00 1.0000000000000000e+01 0.0000000000000000e+00 
0.0000000000000000e+00 0.0000000000000000e+00 1.0000000000000000e+01 
H C 
4 1 
cartesian
   4.2513400000    5.6863000000    4.0269700000
   5.7153100000    4.9600000000    4.6180200000
   4.5502100000    3.9248700000    3.7457300000
   4.1459800000    4.5840500000    5.4364800000
   4.6684500000    4.7786800000    4.4379600000
