H4 C1 
1.0
1.0000000000000000e+01 0.0000000000000000e+00 0.0000000000000000e+00 
0.0000000000000000e+00 1.0000000000000000e+01 0.0000000000000000e+00 
0.0000000000000000e+00 0.0000000000000000e+00 1.0000000000000000e+01 
H C 
4 1 
cartesian
   4.9369600000    3.8470300000    3.7196300000
   3.9323700000    4.8960600000    4.7167500000
   5.6039600000    5.4650100000    4.1644800000
   5.3316900000    4.1462600000    5.5135100000
   4.9699000000    4.5653800000    4.5484200000
