H4 C1 
1.0
1.0000000000000000e+01 0.0000000000000000e+00 0.0000000000000000e+00 
0.0000000000000000e+00 1.0000000000000000e+01 0.0000000000000000e+00 
0.0000000000000000e+00 0.0000000000000000e+00 1.0000000000000000e+01 
H C 
4 1 
cartesian
   4.2156100000    4.8036600000    3.7680600000
   4.8554500000    3.5070300000    4.8251800000
   4.8170900000    5.2738300000    5.3865700000
   6.0210400000    4.6977400000    4.0916100000
   4.9612200000    4.5713900000    4.5519900000
