H4 C1 
1.0
1.0000000000000000e+01 0.0000000000000000e+00 0.0000000000000000e+00 
0.0000000000000000e+00 1.0000000000000000e+01 0.0000000000000000e+00 
0.0000000000000000e+00 0.0000000000000000e+00 1.0000000000000000e+01 
H C 
4 1 
cartesian
   5.1507700000    4.0460500000    3.6205200000
   3.8261200000    4.8192400000    4.5128900000
   5.4726200000    5.5986100000    4.4794900000
   5.1882600000    4.2234300000    5.4786400000
   4.8826700000    4.6703600000    4.5469700000
