H4 C1 
1.0
1.0000000000000000e+01 0.0000000000000000e+00 0.0000000000000000e+00 
0.0000000000000000e+00 1.0000000000000000e+01 0.0000000000000000e+00 
0.0000000000000000e+00 0.0000000000000000e+00 1.0000000000000000e+01 
H C 
4 1 
cartesian
   5.2390800000    4.6711000000    3.3361900000
   5.7381500000    4.1387500000    4.9306000000
   4.0125400000    4.6260300000    4.6875400000
   5.3459800000    5.9492900000    4.5254700000
   5.0697600000    4.8544200000    4.4539900000
