H4 C1 
1.0
1.0000000000000000e+01 0.0000000000000000e+00 0.0000000000000000e+00 
0.0000000000000000e+00 1.0000000000000000e+01 0.0000000000000000e+00 
0.0000000000000000e+00 0.0000000000000000e+00 1.0000000000000000e+01 
H C 
4 1 
cartesian
   5.3898752900    4.1023128900    3.4820580700
   4.0483383300    4.9103482000    4.3552732900
   5.6444040100    5.6608770800    4.3923129700
   5.3061715100    4.1130938000    5.2737118300
   5.1195640500    4.6897621000    4.3599489100
