H4 C1 
1.0
1.0000000000000000e+01 0.0000000000000000e+00 0.0000000000000000e+00 
0.0000000000000000e+00 1.0000000000000000e+01 0.0000000000000000e+00 
0.0000000000000000e+00 0.0000000000000000e+00 1.0000000000000000e+01 
H C 
4 1 
cartesian
   4.8909100000    4.4458800000    3.3305200000
   4.4634500000    5.6627800000    4.5339000000
   6.0991300000    4.9600600000    4.5253900000
   4.7401400000    4.0445100000    5.0789700000
   5.0415400000    4.7389900000    4.3723300000
