H4 C1 
1.0
1.0000000000000000e+01 0.0000000000000000e+00 0.0000000000000000e+00 
0.0000000000000000e+00 1.0000000000000000e+01 0.0000000000000000e+00 
0.0000000000000000e+00 0.0000000000000000e+00 1.0000000000000000e+01 
H C 
4 1 
cartesian
   5.3785691300    4.1379499100    3.5676249900
   3.9951009400    4.8786814300    4.3427075200
   5.6311473400    5.6581831200    4.4259649400
   5.3526964700    4.1789275300    5.3428647300
   5.0743945300    4.7107096600    4.4405156900
