H4 C1 
1.0
1.0000000000000000e+01 0.0000000000000000e+00 0.0000000000000000e+00 
0.0000000000000000e+00 1.0000000000000000e+01 0.0000000000000000e+00 
0.0000000000000000e+00 0.0000000000000000e+00 1.0000000000000000e+01 
H C 
4 1 
cartesian
   4.9745412200    4.2072458800    3.5234694300
   3.6080581700    4.9296541600    4.3449488000
   5.2140873100    5.7403567900    4.4428949400
   4.9307543700    4.2558152100    5.3733931000
   4.6630544500    4.7805011800    4.4499119900
