H4 C1 
1.0
1.0000000000000000e+01 0.0000000000000000e+00 0.0000000000000000e+00 
0.0000000000000000e+00 1.0000000000000000e+01 0.0000000000000000e+00 
0.0000000000000000e+00 0.0000000000000000e+00 1.0000000000000000e+01 
H C 
4 1 
cartesian
   5.3372474000    4.1833744300    3.4956655400
   3.9862940500    4.9699074000    4.3689662200
   5.5193390300    5.7299458800    4.3891310800
   5.2355261900    4.1723705000    5.2655459000
   5.0512235900    4.7436230300    4.3682462200
