H4 C1 
1.0
1.0000000000000000e+01 0.0000000000000000e+00 0.0000000000000000e+00 
0.0000000000000000e+00 1.0000000000000000e+01 0.0000000000000000e+00 
0.0000000000000000e+00 0.0000000000000000e+00 1.0000000000000000e+01 
H C 
4 1 
cartesian
   5.8799000000    4.8003300000    3.6624500000
   4.9002700000    3.7426000000    4.5629600000
   4.1187500000    5.1873900000    3.9811700000
   5.2652200000    5.2028200000    5.2954900000
   5.0439900000    4.7540000000    4.3695600000
