H4 C1 
1.0
1.0000000000000000e+01 0.0000000000000000e+00 0.0000000000000000e+00 
0.0000000000000000e+00 1.0000000000000000e+01 0.0000000000000000e+00 
0.0000000000000000e+00 0.0000000000000000e+00 1.0000000000000000e+01 
H C 
4 1 
cartesian
   5.2331600000    3.8454300000    4.0348500000
   4.2387800000    5.2496600000    4.3433600000
   5.9494800000    5.4671600000    4.3022500000
   5.1838000000    4.6411900000    5.5901300000
   5.1621500000    4.7707600000    4.5311000000
