H4 C1 
1.0
1.0000000000000000e+01 0.0000000000000000e+00 0.0000000000000000e+00 
0.0000000000000000e+00 1.0000000000000000e+01 0.0000000000000000e+00 
0.0000000000000000e+00 0.0000000000000000e+00 1.0000000000000000e+01 
H C 
4 1 
cartesian
   5.1759000000    4.5039700000    3.3858500000
   5.2523900000    4.1099700000    5.1802400000
   4.1116100000    5.2262400000    4.5933300000
   5.7650700000    5.6608500000    4.6660300000
   5.0723200000    4.8447700000    4.4251800000
