H4 C1 
1.0
1.0000000000000000e+01 0.0000000000000000e+00 0.0000000000000000e+00 
0.0000000000000000e+00 1.0000000000000000e+01 0.0000000000000000e+00 
0.0000000000000000e+00 0.0000000000000000e+00 1.0000000000000000e+01 
H C 
4 1 
cartesian
   5.4676227700    4.1261517000    3.6140755200
   4.0005200400    4.8952300400    4.4263359200
   5.6706576000    5.7085416500    4.4632127700
   5.4140997800    4.2125978100    5.3868059900
   5.1104230700    4.7600111200    4.4669284400
