H4 C1 
1.0
1.0000000000000000e+01 0.0000000000000000e+00 0.0000000000000000e+00 
0.0000000000000000e+00 1.0000000000000000e+01 0.0000000000000000e+00 
0.0000000000000000e+00 0.0000000000000000e+00 1.0000000000000000e+01 
H C 
4 1 
cartesian
   5.3616918500    4.1560696300    3.6433094800
   4.0359131200    4.9745740900    4.5364181800
   5.6301281800    5.7364598100    4.5640299900
   5.2741091800    4.1909063200    5.4761486500
   5.0923284100    4.7589286500    4.5393642600
