H4 C1 
1.0
1.0000000000000000e+01 0.0000000000000000e+00 0.0000000000000000e+00 
0.0000000000000000e+00 1.0000000000000000e+01 0.0000000000000000e+00 
0.0000000000000000e+00 0.0000000000000000e+00 1.0000000000000000e+01 
H C 
4 1 
cartesian
   4.9058500000    3.7226700000    3.8627000000
   5.3615000000    5.4692500000    3.5599100000
   6.0166000000    4.5104000000    5.0108000000
   4.3202600000    4.9258900000    5.0447700000
   5.1742600000    4.7134700000    4.3645800000
