H4 C1 
1.0
1.0000000000000000e+01 0.0000000000000000e+00 0.0000000000000000e+00 
0.0000000000000000e+00 1.0000000000000000e+01 0.0000000000000000e+00 
0.0000000000000000e+00 0.0000000000000000e+00 1.0000000000000000e+01 
H C 
4 1 
cartesian
   5.2409900000    4.0664200000    3.6937300000
   4.3909200000    5.5918200000    4.1344800000
   6.0463400000    5.2280600000    4.7679200000
   4.6497600000    4.3974500000    5.3170300000
   5.0704000000    4.8628700000    4.4178700000
