H4 C1 
1.0
1.0000000000000000e+01 0.0000000000000000e+00 0.0000000000000000e+00 
0.0000000000000000e+00 1.0000000000000000e+01 0.0000000000000000e+00 
0.0000000000000000e+00 0.0000000000000000e+00 1.0000000000000000e+01 
H C 
4 1 
cartesian
   4.9279900000    3.8350700000    3.8533800000
   3.5946900000    4.9593900000    4.3167000000
   5.2051200000    5.6943900000    4.0816500000
   4.8889200000    4.4893900000    5.5134300000
   4.6723000000    4.7934300000    4.4431300000
