H4 C1 
1.0
1.0000000000000000e+01 0.0000000000000000e+00 0.0000000000000000e+00 
0.0000000000000000e+00 1.0000000000000000e+01 0.0000000000000000e+00 
0.0000000000000000e+00 0.0000000000000000e+00 1.0000000000000000e+01 
H C 
4 1 
cartesian
   5.4305736000    3.9685803400    3.5027909600
   4.0184136900    4.6935784100    4.3042778100
   5.6563965500    5.5129190800    4.3549480100
   5.4041625900    4.0221743900    5.2633063600
   5.0804485000    4.5709331600    4.3640267000
