H4 C1 
1.0
1.0000000000000000e+01 0.0000000000000000e+00 0.0000000000000000e+00 
0.0000000000000000e+00 1.0000000000000000e+01 0.0000000000000000e+00 
0.0000000000000000e+00 0.0000000000000000e+00 1.0000000000000000e+01 
H C 
4 1 
cartesian
   5.4037677900    4.1111915500    3.5596376500
   3.9913853700    4.8704780600    4.3662829500
   5.6551716800    5.6487153100    4.4103081000
   5.3961187200    4.1831796700    5.3220057700
   5.0904786100    4.7284539500    4.4211916500
