H4 C1 
1.0
1.0000000000000000e+01 0.0000000000000000e+00 0.0000000000000000e+00 
0.0000000000000000e+00 1.0000000000000000e+01 0.0000000000000000e+00 
0.0000000000000000e+00 0.0000000000000000e+00 1.0000000000000000e+01 
H C 
4 1 
cartesian
   4.8680300000    3.9506100000    3.6684000000
   3.8719500000    4.9152200000    4.7118900000
   5.5191000000    5.5570500000    4.3407500000
   5.2417500000    4.1477400000    5.4070600000
   4.8940800000    4.6800800000    4.5439200000
