H4 C1 
1.0
1.0000000000000000e+01 0.0000000000000000e+00 0.0000000000000000e+00 
0.0000000000000000e+00 1.0000000000000000e+01 0.0000000000000000e+00 
0.0000000000000000e+00 0.0000000000000000e+00 1.0000000000000000e+01 
H C 
4 1 
cartesian
   5.3075700000    4.0397400000    3.6826200000
   3.8819300000    4.6405900000    4.5967600000
   5.4713000000    5.5881600000    4.6316000000
   5.3308100000    4.0235900000    5.4045400000
   4.9543500000    4.5705700000    4.5316500000
