H4 C1 
1.0
1.0000000000000000e+01 0.0000000000000000e+00 0.0000000000000000e+00 
0.0000000000000000e+00 1.0000000000000000e+01 0.0000000000000000e+00 
0.0000000000000000e+00 0.0000000000000000e+00 1.0000000000000000e+01 
H C 
4 1 
cartesian
   4.7641600000    4.9763600000    3.3912900000
   5.3019600000    5.6972300000    4.7765500000
   5.8625600000    4.0906200000    4.3999800000
   4.1442200000    4.2903800000    4.8452800000
   5.0516000000    4.7438800000    4.3769700000
