H4 C1 
1.0
1.0000000000000000e+01 0.0000000000000000e+00 0.0000000000000000e+00 
0.0000000000000000e+00 1.0000000000000000e+01 0.0000000000000000e+00 
0.0000000000000000e+00 0.0000000000000000e+00 1.0000000000000000e+01 
H C 
4 1 
cartesian
   4.4059900000    4.0724800000    4.7872300000
   5.0601300000    5.0527500000    3.5451400000
   6.1546900000    4.4140200000    4.6458300000
   5.0558300000    5.6906500000    5.0896300000
   5.1562000000    4.7685500000    4.5479900000
