H4 C1 
1.0
1.0000000000000000e+01 0.0000000000000000e+00 0.0000000000000000e+00 
0.0000000000000000e+00 1.0000000000000000e+01 0.0000000000000000e+00 
0.0000000000000000e+00 0.0000000000000000e+00 1.0000000000000000e+01 
H C 
4 1 
cartesian
   5.0665700000    3.8266800000    5.1566500000
   4.4595200000    4.6544200000    3.6036000000
   6.1042100000    4.8873100000    4.0715400000
   4.8679300000    5.6384500000    5.0151300000
   5.1150000000    4.7546400000    4.4705400000
