H4 C1 
1.0
1.0000000000000000e+01 0.0000000000000000e+00 0.0000000000000000e+00 
0.0000000000000000e+00 1.0000000000000000e+01 0.0000000000000000e+00 
0.0000000000000000e+00 0.0000000000000000e+00 1.0000000000000000e+01 
H C 
4 1 
cartesian
   5.3627834300    4.0605273200    3.5918146800
   3.9202794500    4.8234584900    4.4044117400
   5.5809574300    5.6313506200    4.4363549300
   5.3062546800    4.1426100500    5.3643492300
   5.0170640300    4.6901585000    4.4430164700
