H4 C1 
1.0
1.0000000000000000e+01 0.0000000000000000e+00 0.0000000000000000e+00 
0.0000000000000000e+00 1.0000000000000000e+01 0.0000000000000000e+00 
0.0000000000000000e+00 0.0000000000000000e+00 1.0000000000000000e+01 
H C 
4 1 
cartesian
   5.5040800000    4.0260900000    3.5290900000
   4.2028100000    4.9781100000    4.2508600000
   5.9582100000    5.2556100000    4.6725500000
   5.1412400000    3.8085100000    5.3029600000
   5.1820900000    4.5723200000    4.4352000000
