H4 C1 
1.0
1.0000000000000000e+01 0.0000000000000000e+00 0.0000000000000000e+00 
0.0000000000000000e+00 1.0000000000000000e+01 0.0000000000000000e+00 
0.0000000000000000e+00 0.0000000000000000e+00 1.0000000000000000e+01 
H C 
4 1 
cartesian
   4.8157600000    5.4893800000    3.7196500000
   4.6877600000    3.7605900000    4.4025000000
   4.9708400000    5.2307600000    5.5751700000
   6.2843900000    4.6656200000    4.3859800000
   5.1493600000    4.7755200000    4.5467100000
