H4 C1 
1.0
1.0000000000000000e+01 0.0000000000000000e+00 0.0000000000000000e+00 
0.0000000000000000e+00 1.0000000000000000e+01 0.0000000000000000e+00 
0.0000000000000000e+00 0.0000000000000000e+00 1.0000000000000000e+01 
H C 
4 1 
cartesian
   5.1154300000    3.7771000000    5.0516200000
   4.4250400000    4.6476500000    3.6411100000
   6.0972800000    4.8891900000    4.0691800000
   4.8519500000    5.5922400000    5.0712800000
   5.1157100000    4.7630300000    4.4716900000
