H4 C1 
1.0
1.0000000000000000e+01 0.0000000000000000e+00 0.0000000000000000e+00 
0.0000000000000000e+00 1.0000000000000000e+01 0.0000000000000000e+00 
0.0000000000000000e+00 0.0000000000000000e+00 1.0000000000000000e+01 
H C 
4 1 
cartesian
   5.3881554000    4.1746988800    3.6801354800
   4.0201570300    4.9407281200    4.4687555500
   5.6548431100    5.7036026200    4.5149392300
   5.3711369500    4.2220571600    5.4512366700
   5.0811901800    4.7603521800    4.5481413700
