H4 C1 
1.0
1.0000000000000000e+01 0.0000000000000000e+00 0.0000000000000000e+00 
0.0000000000000000e+00 1.0000000000000000e+01 0.0000000000000000e+00 
0.0000000000000000e+00 0.0000000000000000e+00 1.0000000000000000e+01 
H C 
4 1 
cartesian
   4.6170500000    5.1267300000    5.4738800000
   5.9427600000    4.9104500000    4.2831700000
   4.2041200000    4.9566700000    3.6805600000
   4.8689700000    3.5586300000    4.6469900000
   4.8830700000    4.6815900000    4.5475500000
