H4 C1 
1.0
1.0000000000000000e+01 0.0000000000000000e+00 0.0000000000000000e+00 
0.0000000000000000e+00 1.0000000000000000e+01 0.0000000000000000e+00 
0.0000000000000000e+00 0.0000000000000000e+00 1.0000000000000000e+01 
H C 
4 1 
cartesian
   5.3222130500    4.1070156000    3.5512978500
   3.9407634900    4.8708274400    4.3671235400
   5.5633046600    5.6435813100    4.4277203900
   5.2869692800    4.1358106300    5.3690712900
   5.0218538700    4.6818347800    4.4498804600
