H4 C1 
1.0
1.0000000000000000e+01 0.0000000000000000e+00 0.0000000000000000e+00 
0.0000000000000000e+00 1.0000000000000000e+01 0.0000000000000000e+00 
0.0000000000000000e+00 0.0000000000000000e+00 1.0000000000000000e+01 
H C 
4 1 
cartesian
   4.5935900000    3.8051500000    4.6766500000
   4.8207200000    5.2626500000    3.5957200000
   6.2890000000    4.6258400000    4.4762600000
   4.8979800000    5.5203700000    5.3719300000
   5.1624800000    4.7698800000    4.5436000000
