H4 C1 
1.0
1.0000000000000000e+01 0.0000000000000000e+00 0.0000000000000000e+00 
0.0000000000000000e+00 1.0000000000000000e+01 0.0000000000000000e+00 
0.0000000000000000e+00 0.0000000000000000e+00 1.0000000000000000e+01 
H C 
4 1 
cartesian
   5.3621660700    4.2921694300    3.5387507200
   4.0043406100    5.0801964000    4.3787088300
   5.5731211000    5.8121506300    4.3940607000
   5.2865984400    4.2914781300    5.3645285400
   5.0789203600    4.8467939900    4.4376755500
