H4 C1 
1.0
1.0000000000000000e+01 0.0000000000000000e+00 0.0000000000000000e+00 
0.0000000000000000e+00 1.0000000000000000e+01 0.0000000000000000e+00 
0.0000000000000000e+00 0.0000000000000000e+00 1.0000000000000000e+01 
H C 
4 1 
cartesian
   5.2620291200    4.0015921400    3.6637269300
   3.9003722500    4.7740062300    4.5263351700
   5.4589858100    5.5390009200    4.5488477800
   5.1362096100    4.0084841900    5.4545657100
   4.9739143000    4.5676574300    4.5421733000
