H4 C1 
1.0
1.0000000000000000e+01 0.0000000000000000e+00 0.0000000000000000e+00 
0.0000000000000000e+00 1.0000000000000000e+01 0.0000000000000000e+00 
0.0000000000000000e+00 0.0000000000000000e+00 1.0000000000000000e+01 
H C 
4 1 
cartesian
   4.9250500000    3.7582100000    4.4342600000
   4.5415400000    5.3075300000    3.8639000000
   6.1714500000    4.8783000000    4.2026100000
   5.0392300000    5.0981600000    5.5585200000
   5.1561500000    4.7842000000    4.5487100000
