H4 C1 
1.0
1.0000000000000000e+01 0.0000000000000000e+00 0.0000000000000000e+00 
0.0000000000000000e+00 1.0000000000000000e+01 0.0000000000000000e+00 
0.0000000000000000e+00 0.0000000000000000e+00 1.0000000000000000e+01 
H C 
4 1 
cartesian
   5.3391298800    4.1997909500    3.4542511600
   3.9274092100    4.9152751700    4.3051871900
   5.5905307000    5.7185387700    4.3714906000
   5.3089978500    4.2101917300    5.3157760100
   5.0438664600    4.7446871300    4.3742405200
