H4 C1 
1.0
1.0000000000000000e+01 0.0000000000000000e+00 0.0000000000000000e+00 
0.0000000000000000e+00 1.0000000000000000e+01 0.0000000000000000e+00 
0.0000000000000000e+00 0.0000000000000000e+00 1.0000000000000000e+01 
H C 
4 1 
cartesian
   5.4587827400    4.2064802500    3.6972539100
   4.0929774500    4.9290244000    4.4733956900
   5.7157282200    5.6886404600    4.5328857900
   5.4468068300    4.2558828400    5.4184169400
   5.1530370600    4.7810322100    4.5435421600
