H4 C1 
1.0
1.0000000000000000e+01 0.0000000000000000e+00 0.0000000000000000e+00 
0.0000000000000000e+00 1.0000000000000000e+01 0.0000000000000000e+00 
0.0000000000000000e+00 0.0000000000000000e+00 1.0000000000000000e+01 
H C 
4 1 
cartesian
   5.4410102800    4.1112777000    3.5428940500
   4.0704596100    4.8527954600    4.3096004500
   5.6964274600    5.6241232700    4.3781509900
   5.4168701700    4.1701978300    5.3013046400
   5.1221652200    4.7045687800    4.3906557800
