H4 C1 
1.0
1.0000000000000000e+01 0.0000000000000000e+00 0.0000000000000000e+00 
0.0000000000000000e+00 1.0000000000000000e+01 0.0000000000000000e+00 
0.0000000000000000e+00 0.0000000000000000e+00 1.0000000000000000e+01 
H C 
4 1 
cartesian
   4.8914800000    4.5157700000    3.4892600000
   4.0123200000    5.2543300000    4.7670100000
   5.8125300000    5.2718300000    4.8443400000
   4.7934300000    3.7082900000    5.0745000000
   4.8933400000    4.6651100000    4.5400000000
