H4 C1 
1.0
1.0000000000000000e+01 0.0000000000000000e+00 0.0000000000000000e+00 
0.0000000000000000e+00 1.0000000000000000e+01 0.0000000000000000e+00 
0.0000000000000000e+00 0.0000000000000000e+00 1.0000000000000000e+01 
H C 
4 1 
cartesian
   4.4563400000    3.9073200000    4.1779400000
   5.6240500000    4.9674700000    3.6145600000
   5.7216100000    4.5459600000    5.3364800000
   4.3672800000    5.5647100000    4.7333500000
   5.0750200000    4.7578000000    4.4599600000
