H4 C1 
1.0
1.0000000000000000e+01 0.0000000000000000e+00 0.0000000000000000e+00 
0.0000000000000000e+00 1.0000000000000000e+01 0.0000000000000000e+00 
0.0000000000000000e+00 0.0000000000000000e+00 1.0000000000000000e+01 
H C 
4 1 
cartesian
   4.6468500000    4.6475700000    3.3884300000
   4.2831200000    5.4145700000    4.9672200000
   5.8965300000    5.3435300000    4.3425700000
   5.1269400000    3.8147400000    4.9138600000
   4.9822800000    4.7400300000    4.3882300000
