H4 C1 
1.0
1.0000000000000000e+01 0.0000000000000000e+00 0.0000000000000000e+00 
0.0000000000000000e+00 1.0000000000000000e+01 0.0000000000000000e+00 
0.0000000000000000e+00 0.0000000000000000e+00 1.0000000000000000e+01 
H C 
4 1 
cartesian
   5.8050300000    4.9386900000    3.5978400000
   5.4548700000    4.7494800000    5.4360900000
   4.8937000000    3.5121300000    4.2400500000
   4.1407300000    5.0514700000    4.1477100000
   5.0984400000    4.5663900000    4.3643000000
