H4 C1 
1.0
1.0000000000000000e+01 0.0000000000000000e+00 0.0000000000000000e+00 
0.0000000000000000e+00 1.0000000000000000e+01 0.0000000000000000e+00 
0.0000000000000000e+00 0.0000000000000000e+00 1.0000000000000000e+01 
H C 
4 1 
cartesian
   5.4477757600    4.2152009600    3.6439887600
   4.0881584900    5.0027899100    4.5063599800
   5.6593534100    5.7347441800    4.5244140600
   5.3760188100    4.2178955700    5.4554262300
   5.1649952000    4.7734681500    4.5428923000
