H4 C1 
1.0
1.0000000000000000e+01 0.0000000000000000e+00 0.0000000000000000e+00 
0.0000000000000000e+00 1.0000000000000000e+01 0.0000000000000000e+00 
0.0000000000000000e+00 0.0000000000000000e+00 1.0000000000000000e+01 
H C 
4 1 
cartesian
   5.4317000000    4.5861900000    3.4009100000
   5.1949200000    3.7291300000    4.9504900000
   3.9421900000    4.8146500000    4.3122000000
   5.5060500000    5.5148100000    4.9625000000
   5.0250300000    4.6912500000    4.4572400000
