H4 C1 
1.0
1.0000000000000000e+01 0.0000000000000000e+00 0.0000000000000000e+00 
0.0000000000000000e+00 1.0000000000000000e+01 0.0000000000000000e+00 
0.0000000000000000e+00 0.0000000000000000e+00 1.0000000000000000e+01 
H C 
4 1 
cartesian
   4.2375200000    4.7511200000    3.7415600000
   5.5598400000    3.8473400000    4.3155100000
   4.5901600000    4.8678100000    5.4474300000
   5.7366300000    5.5624600000    4.2291000000
   5.0787800000    4.7542000000    4.4706900000
