H4 C1 
1.0
1.0000000000000000e+01 0.0000000000000000e+00 0.0000000000000000e+00 
0.0000000000000000e+00 1.0000000000000000e+01 0.0000000000000000e+00 
0.0000000000000000e+00 0.0000000000000000e+00 1.0000000000000000e+01 
H C 
4 1 
cartesian
   5.3706350200    4.1353715600    3.5236198200
   3.9815292700    4.9220205100    4.3550309000
   5.5927263800    5.6903248700    4.4157878200
   5.3116124700    4.1503444600    5.3755545200
   5.0828532000    4.7069905400    4.4412734100
