H4 C1 
1.0
1.0000000000000000e+01 0.0000000000000000e+00 0.0000000000000000e+00 
0.0000000000000000e+00 1.0000000000000000e+01 0.0000000000000000e+00 
0.0000000000000000e+00 0.0000000000000000e+00 1.0000000000000000e+01 
H C 
4 1 
cartesian
   4.7833700000    5.7656300000    4.1803600000
   5.1142800000    4.8148900000    5.6317600000
   6.0864100000    4.5013900000    4.2056100000
   4.3352300000    3.9548800000    4.2303200000
   5.0907900000    4.7607400000    4.5369900000
