H4 C1 
1.0
1.0000000000000000e+01 0.0000000000000000e+00 0.0000000000000000e+00 
0.0000000000000000e+00 1.0000000000000000e+01 0.0000000000000000e+00 
0.0000000000000000e+00 0.0000000000000000e+00 1.0000000000000000e+01 
H C 
4 1 
cartesian
   5.4194183400    4.1757652600    3.5581585300
   4.0035464200    4.9316288900    4.3904683500
   5.6580921400    5.7247861500    4.4485732200
   5.3755231300    4.2051396200    5.4003597700
   5.1185283700    4.7520451800    4.4747523500
