H4 C1 
1.0
1.0000000000000000e+01 0.0000000000000000e+00 0.0000000000000000e+00 
0.0000000000000000e+00 1.0000000000000000e+01 0.0000000000000000e+00 
0.0000000000000000e+00 0.0000000000000000e+00 1.0000000000000000e+01 
H C 
4 1 
cartesian
   5.9317200000    4.7723400000    3.7182500000
   4.6489800000    3.7569600000    4.4286700000
   4.2678900000    5.4696500000    4.0632000000
   5.4667600000    5.0553300000    5.4033100000
   5.0313900000    4.7439100000    4.3602800000
