H4 C1 
1.0
1.0000000000000000e+01 0.0000000000000000e+00 0.0000000000000000e+00 
0.0000000000000000e+00 1.0000000000000000e+01 0.0000000000000000e+00 
0.0000000000000000e+00 0.0000000000000000e+00 1.0000000000000000e+01 
H C 
4 1 
cartesian
   5.4582516100    4.2018515700    3.6215016800
   4.0630098400    4.9924601800    4.4875588000
   5.6932090900    5.7570717300    4.5202355700
   5.4079448200    4.2076267300    5.4846502300
   5.1607176200    4.7744310400    4.5442441600
