H4 C1 
1.0
1.0000000000000000e+01 0.0000000000000000e+00 0.0000000000000000e+00 
0.0000000000000000e+00 1.0000000000000000e+01 0.0000000000000000e+00 
0.0000000000000000e+00 0.0000000000000000e+00 1.0000000000000000e+01 
H C 
4 1 
cartesian
   5.5545100000    3.7794200000    3.7392900000
   4.1530000000    4.2860300000    4.6554700000
   5.2323500000    5.5354800000    4.0645700000
   5.7731600000    4.4883300000    5.3529000000
   5.1898700000    4.5705700000    4.4304700000
