H4 C1 
1.0
1.0000000000000000e+01 0.0000000000000000e+00 0.0000000000000000e+00 
0.0000000000000000e+00 1.0000000000000000e+01 0.0000000000000000e+00 
0.0000000000000000e+00 0.0000000000000000e+00 1.0000000000000000e+01 
H C 
4 1 
cartesian
   5.2302278200    3.9068259400    3.4849824000
   3.8524647500    4.6668205500    4.3562899000
   5.3940772100    5.4475968800    4.3830220000
   5.0890840600    3.8867080800    5.2746217500
   4.9295001600    4.4589779600    4.3644018400
