H4 C1 
1.0
1.0000000000000000e+01 0.0000000000000000e+00 0.0000000000000000e+00 
0.0000000000000000e+00 1.0000000000000000e+01 0.0000000000000000e+00 
0.0000000000000000e+00 0.0000000000000000e+00 1.0000000000000000e+01 
H C 
4 1 
cartesian
   5.1712746600    4.1006985600    3.6817190200
   3.8298801700    4.8725161800    4.5070724400
   5.3894994600    5.6729782100    4.5092913000
   5.0855233600    4.1150896400    5.4479230200
   4.8961874200    4.6640068600    4.5425895300
