H4 C1 
1.0
1.0000000000000000e+01 0.0000000000000000e+00 0.0000000000000000e+00 
0.0000000000000000e+00 1.0000000000000000e+01 0.0000000000000000e+00 
0.0000000000000000e+00 0.0000000000000000e+00 1.0000000000000000e+01 
H C 
4 1 
cartesian
   5.2360781900    4.0429028300    3.6838623000
   3.7843649100    4.8091299200    4.5085240800
   5.4365108800    5.6115651600    4.5308420700
   5.1785660100    4.1616420800    5.4811251300
   4.8828334000    4.6755242400    4.5375811800
