H4 C1 
1.0
1.0000000000000000e+01 0.0000000000000000e+00 0.0000000000000000e+00 
0.0000000000000000e+00 1.0000000000000000e+01 0.0000000000000000e+00 
0.0000000000000000e+00 0.0000000000000000e+00 1.0000000000000000e+01 
H C 
4 1 
cartesian
   6.0353200000    4.7596800000    3.8392800000
   5.4273400000    4.3190000000    5.4221400000
   4.5653200000    3.7250400000    3.9372100000
   4.4721300000    5.4502700000    4.3644300000
   5.0812900000    4.5662100000    4.3525200000
