H4 C1 
1.0
1.0000000000000000e+01 0.0000000000000000e+00 0.0000000000000000e+00 
0.0000000000000000e+00 1.0000000000000000e+01 0.0000000000000000e+00 
0.0000000000000000e+00 0.0000000000000000e+00 1.0000000000000000e+01 
H C 
4 1 
cartesian
   4.9670900000    3.7248100000    4.1264900000
   3.6322100000    5.0344100000    4.2477400000
   5.2413400000    5.4982000000    3.8653200000
   4.9600000000    4.9536900000    5.4934200000
   4.6569700000    4.7740300000    4.4458100000
